c smth
s vc 200 138
195
193
192
191
190
189
186
185
184
182
181
180
179
176
175
174
172
171
169
168
167
166
165
164
163
161
160
159
154
153
151
150
148
145
144
143
142
141
140
139
138
137
135
134
131
130
129
125
123
121
120
115
114
113
111
110
109
108
107
105
102
101
100
99
97
96
95
94
93
92
91
90
85
84
82
80
79
78
77
76
75
74
73
72
70
69
68
66
65
64
63
60
57
56
55
53
52
51
50
49
48
47
46
45
43
42
41
40
39
38
37
36
35
33
32
31
30
28
27
26
25
24
22
21
20
19
17
16
14
13
12
9
7
5
4
3
2
1